Total weight: 1118.9809221620085
Route 1: 0 69 30 51 1 0 
Route 2: 0 94 95 87 97 92 37 98 93 5 60 89 0 
Route 3: 0 96 99 61 16 86 17 84 18 0 
Route 4: 0 83 45 8 82 48 7 52 0 
Route 5: 0 73 41 22 74 4 24 29 68 80 0 
Route 6: 0 27 70 32 90 63 10 31 0 
Route 7: 0 50 77 3 79 33 81 34 78 0 
Route 8: 0 28 76 12 26 40 58 53 0 
Route 9: 0 6 59 85 91 44 38 14 100 0 
Route 10: 0 88 62 11 64 49 36 46 47 19 0 
Route 11: 0 21 72 75 56 23 67 39 25 55 54 0 
Route 12: 0 13 2 57 15 43 42 0 
Route 13: 0 20 66 65 71 35 9 0 
